
Gurobi 7.5.2 (linux64) logging started Sat Jul  7 17:01:41 2018

Changed value of parameter LogFile to result/ilp/simNo_2-n_100-m_40-s_4-minVAF_0.05-cov_10000-k_1-fn_0.25-fp_0.0001-na_0.15.ILP.gurobiSolverLog
   Prev: gurobi.log  Default: 
Changed value of parameter TimeLimit to 86400.0
   Prev: 1e+100  Min: 0.0  Max: 1e+100  Default: 1e+100
Optimize a model with 639293 rows, 10765 columns and 1940420 nonzeros
Variable types: 0 continuous, 10765 integer (10765 binary)
Coefficient statistics:
  Matrix range     [1e-05, 4e+00]
  Objective range  [1e+00, 2e+01]
  Bounds range     [1e+00, 1e+00]
  RHS range        [2e-01, 2e+00]
Found heuristic solution: objective -16762.63747
Presolve removed 118158 rows and 886 columns (presolve time = 5s) ...
Presolve removed 120716 rows and 926 columns (presolve time = 10s) ...
Presolve removed 120716 rows and 926 columns (presolve time = 15s) ...
Presolve removed 121197 rows and 926 columns (presolve time = 21s) ...
Presolve removed 169297 rows and 1407 columns (presolve time = 25s) ...
Presolve removed 169297 rows and 1407 columns
Presolve time: 28.94s
Presolved: 469996 rows, 9358 columns, 1417747 nonzeros
Variable types: 0 continuous, 9358 integer (9358 binary)
Presolved: 9358 rows, 479354 columns, 1427105 nonzeros

Presolve removed 9358 rows and 479354 columns

Root simplex log...

Iteration    Objective       Primal Inf.    Dual Inf.      Time
       0    2.4958781e+01   0.000000e+00   8.753500e+04     34s
    9863   -2.3814579e+02   0.000000e+00   1.785630e+05     35s
   22715   -3.1574257e+02   0.000000e+00   8.779444e+04     41s
   33513   -3.4774543e+02   0.000000e+00   2.034332e+05     45s
   42161   -3.6678566e+02   0.000000e+00   1.232918e+05     50s
   51670   -3.8945985e+02   0.000000e+00   1.511163e+05     55s
   60340   -4.0440387e+02   0.000000e+00   1.033045e+05     60s
   68814   -4.1591376e+02   0.000000e+00   4.095734e+05     66s
   78334   -4.2851606e+02   0.000000e+00   2.377578e+04     70s
   84658   -4.3347482e+02   0.000000e+00   1.446804e+04     75s
   86209   -4.3362490e+02   0.000000e+00   0.000000e+00     78s
   86209   -4.3362490e+02   0.000000e+00   0.000000e+00     79s

Root relaxation: objective -4.336249e+02, 86209 iterations, 48.23 seconds
Total elapsed time = 243.33s
Total elapsed time = 411.48s

    Nodes    |    Current Node    |     Objective Bounds      |     Work
 Expl Unexpl |  Obj  Depth IntInf | Incumbent    BestBd   Gap | It/Node Time

     0     0 -433.62490    0 2823 -16762.637 -433.62490  97.4%     -  591s
H    0     0                    -735.8364572 -433.62490  41.1%     -  599s
H    0     0                    -557.5113197 -433.62490  22.2%     -  600s
H    0     0                    -547.4633843 -433.62490  20.8%     -  601s
     0     0 -436.29163    0 2828 -547.46338 -436.29163  20.3%     -  678s
     0     0 -436.56742    0 2887 -547.46338 -436.56742  20.3%     -  747s
     0     0 -439.97228    0 2912 -547.46338 -439.97228  19.6%     - 6847s
H    0     0                    -540.4298296 -439.97228  18.6%     - 6853s
     0     0 -440.00470    0 2912 -540.42983 -440.00470  18.6%     - 6859s
     0     0 -440.18452    0 2911 -540.42983 -440.18452  18.5%     - 6901s
     0     0 -441.36337    0 2853 -540.42983 -441.36337  18.3%     - 28744s
     0     0 -441.79260    0 2859 -540.42983 -441.79260  18.3%     - 28820s
     0     0 -441.79260    0 2859 -540.42983 -441.79260  18.3%     - 28824s
     0     0 -442.50207    0 2842 -540.42983 -442.50207  18.1%     - 29214s
     0     0 -442.62767    0 2846 -540.42983 -442.62767  18.1%     - 29255s
     0     0 -442.62767    0 2846 -540.42983 -442.62767  18.1%     - 29261s
     0     0 -443.49070    0 2833 -540.42983 -443.49070  17.9%     - 30847s
     0     0 -444.22936    0 2854 -540.42983 -444.22936  17.8%     - 31231s
     0     0 -444.23645    0 2857 -540.42983 -444.23645  17.8%     - 31239s
     0     0 -444.23645    0 2857 -540.42983 -444.23645  17.8%     - 31243s
     0     0 -445.86959    0 2850 -540.42983 -445.86959  17.5%     - 34970s
H    0     0                    -535.4058619 -445.86959  16.7%     - 34984s
     0     0 -445.86959    0 2853 -535.40586 -445.86959  16.7%     - 34988s
     0     0 -446.36775    0 2805 -535.40586 -446.36775  16.6%     - 35089s
H    0     0                    -531.3866878 -446.36775  16.0%     - 35110s
     0     0 -446.67431    0 2792 -531.38669 -446.67431  15.9%     - 35236s
     0     0 -446.70268    0 2795 -531.38669 -446.70268  15.9%     - 35256s
     0     0 -446.70268    0 2798 -531.38669 -446.70268  15.9%     - 35260s
     0     0 -447.59035    0 2838 -531.38669 -447.59035  15.8%     - 36616s
H    0     0                    -525.3579266 -447.59035  14.8%     - 36681s
     0     0 -447.89530    0 2827 -525.35793 -447.89530  14.7%     - 36915s
     0     0 -448.00991    0 2842 -525.35793 -448.00991  14.7%     - 37022s
     0     0 -448.01334    0 2847 -525.35793 -448.01334  14.7%     - 37036s
     0     0 -448.39607    0 2834 -525.35793 -448.39607  14.6%     - 37402s
     0     0 -448.72261    0 2824 -525.35793 -448.72261  14.6%     - 37651s
     0     0 -449.06337    0 2812 -525.35793 -449.06337  14.5%     - 37836s
     0     0 -449.09667    0 2814 -525.35793 -449.09667  14.5%     - 37885s
     0     0 -449.09667    0 2821 -525.35793 -449.09667  14.5%     - 37892s
     0     0 -450.09892    0 2823 -525.35793 -450.09892  14.3%     - 39543s
     0     0 -450.36231    0 2828 -525.35793 -450.36231  14.3%     - 39810s
     0     0 -450.36457    0 2845 -525.35793 -450.36457  14.3%     - 39829s
     0     0 -450.36680    0 2849 -525.35793 -450.36680  14.3%     - 39851s
     0     0 -450.39188    0 2851 -525.35793 -450.39188  14.3%     - 39867s
     0     0 -450.40157    0 2837 -525.35793 -450.40157  14.3%     - 39877s
     0     0 -450.40162    0 2835 -525.35793 -450.40162  14.3%     - 39881s
     0     0 -450.81646    0 2835 -525.35793 -450.81646  14.2%     - 40056s
     0     0 -451.30776    0 2889 -525.35793 -451.30776  14.1%     - 40505s
     0     0 -451.32987    0 2865 -525.35793 -451.32987  14.1%     - 40543s
     0     0 -451.40876    0 2887 -525.35793 -451.40876  14.1%     - 40689s
     0     0 -451.42463    0 2925 -525.35793 -451.42463  14.1%     - 40705s
     0     0 -451.42896    0 2925 -525.35793 -451.42896  14.1%     - 40714s
     0     0 -451.43121    0 2921 -525.35793 -451.43121  14.1%     - 40722s
     0     0 -451.43121    0 2919 -525.35793 -451.43121  14.1%     - 40727s
     0     0 -451.66463    0 2839 -525.35793 -451.66463  14.0%     - 40981s
     0     0 -451.69632    0 2855 -525.35793 -451.69632  14.0%     - 41104s
     0     0 -451.71444    0 2858 -525.35793 -451.71444  14.0%     - 41205s
     0     0 -451.71495    0 2864 -525.35793 -451.71495  14.0%     - 41219s
     0     0 -452.28771    0 2718 -525.35793 -452.28771  13.9%     - 41666s
     0     0 -452.45939    0 2845 -525.35793 -452.45939  13.9%     - 43314s
     0     0 -452.46025    0 2853 -525.35793 -452.46025  13.9%     - 43324s
     0     0 -452.48529    0 2852 -525.35793 -452.48529  13.9%     - 43363s
     0     0 -452.82320    0 2868 -525.35793 -452.82320  13.8%     - 46353s
     0     0 -452.91666    0 2870 -525.35793 -452.91666  13.8%     - 46473s
     0     0 -452.93487    0 2862 -525.35793 -452.93487  13.8%     - 46500s
     0     0 -452.93487    0 2878 -525.35793 -452.93487  13.8%     - 46505s
     0     0 -454.87203    0 2857 -525.35793 -454.87203  13.4%     - 52078s
     0     0 -455.32412    0 2853 -525.35793 -455.32412  13.3%     - 53310s
     0     0 -455.36599    0 2805 -525.35793 -455.36599  13.3%     - 53382s
     0     0 -455.36599    0 2802 -525.35793 -455.36599  13.3%     - 53403s
     0     0 -455.97100    0 2809 -525.35793 -455.97100  13.2%     - 53932s
     0     0 -456.03431    0 2838 -525.35793 -456.03431  13.2%     - 54171s
     0     0 -456.22271    0 2839 -525.35793 -456.22271  13.2%     - 55707s
     0     0 -456.22271    0 2836 -525.35793 -456.22271  13.2%     - 55727s
     0     0 -457.43837    0 2850 -525.35793 -457.43837  12.9%     - 62187s
H    0     0                    -519.3291654 -457.43837  11.9%     - 62259s
     0     0 -457.43837    0 2848 -519.32917 -457.43837  11.9%     - 62268s
     0     0 -458.69126    0 2793 -519.32917 -458.69126  11.7%     - 66179s
     0     0 -458.76848    0 2838 -519.32917 -458.76848  11.7%     - 66478s
     0     0 -458.76848    0 2847 -519.32917 -458.76848  11.7%     - 66484s
     0     0 -459.31378    0 2851 -519.32917 -459.31378  11.6%     - 67533s
     0     0 -459.89991    0 2852 -519.32917 -459.89991  11.4%     - 68917s
     0     0 -459.94178    0 2832 -519.32917 -459.94178  11.4%     - 68967s
     0     0 -459.99031    0 2843 -519.32917 -459.99031  11.4%     - 69121s
     0     0 -460.00185    0 2848 -519.32917 -460.00185  11.4%     - 69138s
     0     0 -460.00185    0 2853 -519.32917 -460.00185  11.4%     - 69141s
     0     0 -461.55718    0 2866 -519.32917 -461.55718  11.1%     - 72161s
     0     0 -461.69848    0 2857 -519.32917 -461.69848  11.1%     - 72214s
     0     0 -461.71941    0 2861 -519.32917 -461.71941  11.1%     - 72224s
     0     0 -461.71941    0 2861 -519.32917 -461.71941  11.1%     - 72226s
     0     0 -462.34981    0 2861 -519.32917 -462.34981  11.0%     - 73307s
     0     0 -462.51499    0 2850 -519.32917 -462.51499  10.9%     - 74321s
     0     0 -462.54320    0 2860 -519.32917 -462.54320  10.9%     - 74465s
     0     0 -462.55639    0 2867 -519.32917 -462.55639  10.9%     - 74506s
     0     0 -462.55639    0 2868 -519.32917 -462.55639  10.9%     - 74512s
     0     0 -463.21023    0 2859 -519.32917 -463.21023  10.8%     - 78549s
     0     0 -463.51153    0 2876 -519.32917 -463.51153  10.7%     - 78814s
     0     0 -463.54028    0 2872 -519.32917 -463.54028  10.7%     - 78861s
     0     0 -463.55551    0 2866 -519.32917 -463.55551  10.7%     - 78892s
     0     0 -463.57957    0 2877 -519.32917 -463.57957  10.7%     - 78978s
     0     0 -463.58282    0 2875 -519.32917 -463.58282  10.7%     - 78995s
     0     0 -463.59416    0 2871 -519.32917 -463.59416  10.7%     - 79011s
     0     0 -463.59416    0 2872 -519.32917 -463.59416  10.7%     - 79016s
     0     0 -464.47866    0 2842 -519.32917 -464.47866  10.6%     - 86395s

Cutting planes:
  Gomory: 3
  Zero half: 193

Explored 1 nodes (2528590 simplex iterations) in 86400.14 seconds
Thread count was 1 (of 80 available processors)

Solution count 9: -519.329 -525.358 -531.387 ... -16762.6

Time limit reached
Best objective -5.193291653930e+02, best bound -4.644786576347e+02, gap 10.5618%
